Route #1: 27 20 23 18 51 52 36 59
Route #2: 12 34 45 16 57
Route #3: 8 26 21 14 3 30 55
Route #4: 17 40 63 53 38 7 29 13
Route #5: 44 32 39 10 42 43
Route #6: 54 22 56 33 41 15 58 48 47 2 50
Route #7: 61 35 9 28 46 6 31
Route #8: 62 49 37 25 60
Route #9: 4 19 5 24 11
cost 1827
